NAME : n20w200.001.233.tour
COMMENT : Length = 233
COMMENT : Found by LKH [Keld Helsgaun] Tue May  2 05:19:04 2017
TYPE : TOUR
DIMENSION : 21
TOUR_SECTION
1
10
15
11
12
3
16
17
5
9
2
6
7
19
14
8
4
18
13
21
20
-1
EOF
